NAME : random1
TYPE : HCP
COMMENT : 
DIMENSION : 420
EDGE_DATA_FORMAT : EDGE_LIST
EDGE_DATA_SECTION
1 3
1 8
1 15
2 9
2 16
3 5
3 10
3 17
4 11
4 12
4 18
5 12
5 19
6 13
6 20
7 10
7 14
7 21
8 22
9 23
10 24
11 13
11 25
12 26
13 27
14 28
15 21
15 29
16 18
16 22
16 30
17 20
17 24
17 26
17 31
18 19
18 32
19 21
19 33
20 24
20 25
20 27
20 34
21 23
21 35
22 36
23 37
24 27
24 38
25 39
26 40
27 41
28 42
29 31
29 43
30 40
30 44
31 39
31 45
32 35
32 41
32 46
33 38
33 41
33 47
34 36
34 48
35 36
35 40
35 49
36 39
36 50
37 51
38 52
39 53
40 54
41 55
42 56
43 50
43 57
44 52
44 58
45 48
45 59
46 49
46 60
47 61
48 62
49 63
50 53
50 64
51 52
51 53
51 65
52 66
53 67
54 68
55 69
56 70
57 58
57 67
57 71
58 65
58 72
59 65
59 73
60 62
60 66
60 68
60 74
61 66
61 75
62 68
62 76
63 77
64 65
64 68
64 78
65 79
66 80
67 81
68 69
68 82
69 83
70 84
71 77
71 78
71 85
72 77
72 79
72 86
73 76
73 87
74 83
74 88
75 77
75 89
76 77
76 90
77 78
77 91
78 92
79 93
80 82
80 83
80 94
81 95
82 96
83 97
84 98
85 91
85 99
86 89
86 90
86 100
87 95
87 101
88 102
89 103
90 104
91 105
92 94
92 106
93 96
93 107
94 95
94 108
95 109
96 110
97 111
98 112
99 100
99 102
99 108
99 113
100 114
101 115
102 116
103 111
103 117
104 105
104 106
104 109
104 118
105 119
106 120
107 121
108 109
108 110
108 122
109 110
109 123
110 124
111 125
112 126
113 122
113 127
114 119
114 128
115 118
115 123
115 129
116 119
116 130
117 122
117 125
117 131
118 132
119 133
120 124
120 134
121 135
122 136
123 125
123 137
124 138
125 139
126 140
127 141
128 135
128 142
129 143
130 134
130 135
130 139
130 144
131 139
131 145
132 137
132 146
133 138
133 147
134 148
135 138
135 149
136 150
137 151
138 152
139 153
140 154
141 144
141 146
141 155
142 143
142 145
142 147
142 149
142 153
142 156
143 145
143 147
143 157
144 158
145 159
146 160
147 149
147 161
148 162
149 163
150 152
150 153
150 164
151 165
152 166
153 167
154 168
155 156
155 160
155 166
155 167
155 169
156 157
156 161
156 170
157 171
158 172
159 160
159 173
160 164
160 174
161 162
161 175
162 176
163 164
163 177
164 178
165 179
166 180
167 181
168 182
169 172
169 174
169 183
170 184
171 173
171 174
171 177
171 185
172 186
173 174
173 181
173 187
174 175
174 188
175 177
175 178
175 189
176 177
176 190
177 191
178 192
179 193
180 194
181 195
182 196
183 186
183 197
184 194
184 198
185 195
185 199
186 194
186 200
187 189
187 193
187 194
187 201
188 191
188 195
188 202
189 191
189 195
189 203
190 204
191 205
192 206
193 207
194 208
195 209
196 210
197 211
198 209
198 212
199 213
200 214
201 203
201 206
201 215
202 204
202 216
203 209
203 217
204 218
205 208
205 219
206 220
207 208
207 221
208 222
209 223
210 224
211 215
211 220
211 221
211 225
212 226
213 227
214 216
214 228
215 219
215 229
216 217
216 223
216 230
217 220
217 222
217 231
218 232
219 233
220 234
221 235
222 236
223 237
224 238
225 231
225 233
225 239
226 240
227 236
227 241
228 242
229 243
230 244
231 232
231 235
231 236
231 237
231 245
232 246
233 234
233 235
233 247
234 235
234 248
235 249
236 250
237 251
238 252
239 250
239 253
240 242
240 243
240 254
241 255
242 244
242 245
242 247
242 251
242 256
243 257
244 247
244 258
245 259
246 260
247 261
248 262
249 250
249 263
250 264
251 265
252 266
253 262
253 267
254 262
254 268
255 269
256 257
256 262
256 270
257 262
257 271
258 272
259 265
259 273
260 274
261 275
262 276
263 277
264 278
265 279
266 280
267 271
267 281
268 274
268 276
268 282
269 283
270 272
270 284
271 275
271 285
272 286
273 287
274 288
275 289
276 279
276 290
277 279
277 291
278 292
279 293
280 294
281 293
281 295
282 289
282 292
282 296
283 297
284 298
285 299
286 293
286 300
287 293
287 301
288 291
288 302
289 303
290 304
291 305
292 306
293 307
294 308
295 309
296 302
296 305
296 310
297 304
297 311
298 312
299 313
300 314
301 305
301 307
301 315
302 306
302 316
303 317
304 318
305 307
305 319
306 320
307 321
308 322
309 323
310 312
310 324
311 321
311 325
312 314
312 316
312 326
313 327
314 317
314 321
314 328
315 329
316 330
317 331
318 332
319 333
320 334
321 335
322 336
323 325
323 337
324 328
324 329
324 333
324 338
325 326
325 330
325 339
326 332
326 340
327 332
327 333
327 334
327 341
328 331
328 342
329 334
329 343
330 344
331 333
331 334
331 345
332 346
333 347
334 348
335 349
336 350
337 348
337 351
338 345
338 346
338 352
339 340
339 341
339 344
339 353
340 354
341 342
341 349
341 355
342 346
342 349
342 356
343 357
344 348
344 358
345 359
346 360
347 349
347 361
348 362
349 363
350 364
351 353
351 356
351 357
351 358
351 365
352 357
352 360
352 366
353 358
353 363
353 367
354 359
354 368
355 356
355 369
356 362
356 370
357 359
357 360
357 371
358 360
358 372
359 373
360 374
361 362
361 375
362 376
363 377
364 378
365 366
365 369
365 379
366 380
367 373
367 381
368 382
369 371
369 383
370 384
371 385
372 386
373 376
373 387
374 388
375 389
376 377
376 390
377 391
378 392
379 381
379 393
380 388
380 394
381 386
381 389
381 395
382 386
382 396
383 387
383 397
384 389
384 398
385 399
386 391
386 400
387 390
387 401
388 391
388 402
389 403
390 404
391 405
392 406
393 404
393 407
394 396
394 399
394 405
394 408
395 403
395 409
396 410
397 403
397 404
397 411
398 412
399 413
400 403
400 405
400 414
401 405
401 415
402 416
403 417
404 405
404 418
405 419
406 420
407 408
409 410
411 412
413 414
415 416
417 418
419 420
-1
EOF
